SDVRP instances/custom_instances/p03_25_splitx10_0.vrp
NAME:p03_25_splitx10_
BEST_KNOWN: 0
COMMENT: 0
DIMENSION: 423
CAPACITY: 2000
EDGE_WEIGHT_FORMAT: FUNCTION
EDGE_WEIGHT_TYPE: EXACT_2D
NODE_COORD_SECTION
1 0.00000 0.00000
2 -44 24
3 -44 24
4 -44 24
5 -44 24
6 -44 24
7 -44 24
8 -18 18
9 -18 18
10 -18 18
11 -18 18
12 -18 18
13 35 -29
14 35 -29
15 35 -29
16 35 25
17 35 25
18 35 25
19 35 25
20 -16 -47
21 -16 -47
22 -16 -47
23 -16 -47
24 -15 42
25 -15 42
26 -15 42
27 -15 42
28 -15 42
29 -15 42
30 -4 -11
31 -4 -11
32 -4 -11
33 -4 -11
34 -4 -11
35 1 42
36 1 42
37 1 42
38 1 42
39 1 42
40 1 42
41 -37 -20
42 -37 -20
43 -37 -20
44 -37 -20
45 -37 -20
46 -37 40
47 -37 40
48 -9 26
49 -9 26
50 -9 26
51 -9 26
52 -9 26
53 -9 26
54 -46 -48
55 -46 -48
56 -46 -48
57 -46 -48
58 -46 -48
59 -48 -5
60 -48 -5
61 -48 -5
62 3 44
63 3 44
64 3 44
65 3 44
66 3 44
67 3 44
68 35 -30
69 35 -30
70 35 -30
71 35 -30
72 -50 -8
73 -50 -8
74 -50 -8
75 -50 -8
76 -50 -8
77 -32 11
78 -32 11
79 -32 11
80 -32 11
81 -32 11
82 -32 11
83 -26 6
84 -26 6
85 -26 6
86 -28 -50
87 -1 49
88 -1 49
89 -1 49
90 -1 49
91 -1 49
92 -16 35
93 -16 35
94 -16 35
95 -16 35
96 4 -9
97 4 -9
98 4 -9
99 4 -9
100 4 -9
101 25 19
102 25 19
103 25 19
104 25 19
105 -9 -41
106 -9 -41
107 -9 -41
108 -9 -41
109 -9 -41
110 -9 45
111 -9 45
112 -9 45
113 -9 45
114 -9 45
115 -36 29
116 -36 29
117 -36 29
118 -36 29
119 -36 29
120 -36 29
121 -7 -10
122 -7 -10
123 -27 -21
124 -27 -21
125 -27 -21
126 -27 -21
127 -27 -21
128 -8 -35
129 -8 -35
130 -8 -35
131 -16 -43
132 -16 -43
133 -34 0
134 -34 0
135 38 31
136 38 31
137 38 31
138 38 31
139 38 31
140 38 31
141 -45 3
142 -45 3
143 -45 3
144 -45 3
145 -45 3
146 -45 3
147 46 -2
148 46 -2
149 46 -2
150 -12 -19
151 -12 -19
152 -12 -19
153 -12 -19
154 -47 50
155 -47 50
156 -47 50
157 -47 50
158 -47 50
159 -8 42
160 -8 42
161 -8 42
162 -8 42
163 -8 42
164 -29 -3
165 -29 -3
166 -29 -3
167 -29 -3
168 -8 -47
169 -8 -47
170 -22 -27
171 -22 -27
172 -22 -27
173 -22 -27
174 4 -15
175 4 -15
176 4 -15
177 4 -15
178 -29 -34
179 -1 -43
180 -1 -43
181 -1 -43
182 -1 -43
183 -1 -43
184 -1 -43
185 -1 -43
186 -5 13
187 -5 13
188 -5 13
189 -5 13
190 47 -33
191 47 -33
192 42 47
193 42 47
194 -1 -48
195 -1 -48
196 -1 -48
197 -1 -48
198 -1 -48
199 -1 -48
200 -1 -48
201 -18 -50
202 -18 -50
203 -18 -50
204 -18 -50
205 -18 -50
206 -18 -50
207 -49 20
208 -49 20
209 -27 29
210 -27 29
211 -27 29
212 -27 29
213 -27 29
214 25 -47
215 25 -47
216 25 -47
217 -44 -18
218 -14 -42
219 -14 -42
220 -14 -42
221 -14 -42
222 -14 -42
223 -49 -6
224 -49 -6
225 -7 9
226 32 -19
227 32 -19
228 32 -19
229 32 -19
230 32 -19
231 -20 19
232 -20 19
233 -20 19
234 -20 19
235 -45 -11
236 -45 -11
237 -45 -11
238 -45 -11
239 50 -25
240 50 -25
241 50 -25
242 50 -25
243 -49 -36
244 -49 -36
245 2 20
246 2 20
247 2 20
248 2 20
249 2 20
250 22 -10
251 22 -10
252 22 -10
253 22 -10
254 22 -10
255 -23 46
256 -23 46
257 -23 46
258 -23 46
259 -23 46
260 -23 46
261 38 -30
262 38 -30
263 39 -17
264 39 -17
265 39 -17
266 39 -17
267 16 33
268 16 33
269 16 33
270 16 33
271 16 33
272 -31 -41
273 -31 -41
274 -31 -41
275 -31 -41
276 -31 -41
277 -31 -41
278 -31 -41
279 -46 -6
280 -46 -6
281 -46 -6
282 -46 -6
283 42 -1
284 42 -1
285 42 -1
286 42 -1
287 42 -1
288 27 -22
289 27 -22
290 27 -22
291 27 -22
292 27 -22
293 27 -22
294 -37 36
295 -37 36
296 -37 36
297 -37 36
298 -37 36
299 2 -7
300 2 -7
301 2 -7
302 2 -7
303 23 13
304 23 13
305 23 13
306 -26 0
307 -26 0
308 -26 0
309 -10 17
310 -10 17
311 -10 17
312 16 -29
313 16 -29
314 16 -29
315 -2 4
316 -2 4
317 -2 4
318 -2 4
319 -2 4
320 -11 45
321 -11 45
322 -11 45
323 -11 45
324 -11 45
325 19 -35
326 19 -35
327 -38 40
328 -38 40
329 -38 40
330 -38 40
331 -38 40
332 -38 40
333 13 30
334 13 30
335 13 30
336 13 30
337 13 30
338 13 30
339 13 30
340 -20 34
341 -20 34
342 -20 34
343 -20 34
344 -20 34
345 -15 -13
346 -15 -13
347 -15 -13
348 28 49
349 28 49
350 28 49
351 28 49
352 28 49
353 -19 -3
354 -19 -3
355 -19 -3
356 -19 -3
357 -19 -3
358 -41 -4
359 -41 -4
360 -41 -4
361 -41 -4
362 40 -41
363 40 -41
364 40 -41
365 40 -41
366 40 -41
367 40 -41
368 19 -10
369 19 -10
370 19 -10
371 19 -10
372 19 -10
373 -17 -45
374 -17 -45
375 -17 -45
376 -17 -45
377 -34 39
378 -34 39
379 -34 39
380 -46 3
381 -46 3
382 -44 10
383 -44 10
384 -44 10
385 -44 10
386 -44 10
387 -44 10
388 -44 10
389 1 40
390 1 40
391 1 40
392 1 40
393 1 40
394 1 40
395 1 40
396 1 40
397 31 -24
398 31 -24
399 -6 15
400 -6 15
401 -6 15
402 -26 -38
403 -26 -38
404 -13 26
405 -13 26
406 -13 26
407 -13 26
408 -48 -48
409 -48 -48
410 -48 -48
411 -48 -48
412 -48 -48
413 -48 -48
414 35 -3
415 35 -3
416 35 -3
417 35 -3
418 35 -3
419 35 -3
420 32 -5
421 32 -5
422 32 -5
423 32 -5
DEMAND_SECTION
1 0
2 400
3 400
4 100
5 20
6 20
7 20
8 400
9 20
10 20
11 20
12 10
13 400
14 200
15 100
16 400
17 400
18 100
19 20
20 400
21 200
22 100
23 10
24 400
25 400
26 100
27 20
28 20
29 10
30 400
31 200
32 100
33 20
34 10
35 400
36 200
37 100
38 20
39 20
40 10
41 400
42 200
43 100
44 20
45 10
46 400
47 200
48 400
49 200
50 20
51 20
52 20
53 20
54 400
55 200
56 20
57 20
58 10
59 400
60 400
61 100
62 400
63 400
64 20
65 20
66 20
67 20
68 400
69 20
70 20
71 20
72 400
73 20
74 20
75 20
76 20
77 200
78 100
79 20
80 20
81 20
82 20
83 400
84 400
85 20
86 400
87 400
88 400
89 100
90 20
91 10
92 400
93 200
94 100
95 10
96 400
97 20
98 20
99 20
100 20
101 400
102 200
103 100
104 20
105 400
106 400
107 100
108 20
109 20
110 200
111 20
112 20
113 20
114 10
115 400
116 400
117 20
118 20
119 20
120 20
121 400
122 20
123 400
124 400
125 20
126 20
127 20
128 400
129 200
130 20
131 400
132 400
133 400
134 400
135 400
136 100
137 20
138 20
139 20
140 20
141 400
142 200
143 100
144 20
145 20
146 10
147 400
148 20
149 10
150 200
151 100
152 20
153 10
154 400
155 200
156 20
157 20
158 10
159 400
160 20
161 20
162 20
163 20
164 200
165 20
166 20
167 20
168 400
169 20
170 400
171 400
172 20
173 20
174 400
175 400
176 20
177 10
178 400
179 400
180 400
181 100
182 20
183 20
184 20
185 10
186 400
187 100
188 20
189 20
190 400
191 20
192 400
193 20
194 200
195 100
196 20
197 20
198 20
199 20
200 10
201 400
202 400
203 100
204 20
205 20
206 20
207 200
208 100
209 400
210 100
211 20
212 20
213 10
214 200
215 100
216 20
217 400
218 200
219 100
220 20
221 20
222 10
223 400
224 20
225 400
226 400
227 200
228 100
229 20
230 20
231 400
232 400
233 100
234 20
235 400
236 100
237 20
238 20
239 200
240 20
241 20
242 10
243 400
244 400
245 200
246 20
247 20
248 20
249 10
250 400
251 200
252 100
253 20
254 10
255 400
256 400
257 20
258 20
259 20
260 10
261 200
262 100
263 400
264 200
265 20
266 10
267 200
268 20
269 20
270 20
271 10
272 200
273 100
274 20
275 20
276 20
277 20
278 10
279 400
280 200
281 20
282 20
283 400
284 100
285 20
286 20
287 20
288 400
289 400
290 100
291 20
292 20
293 10
294 400
295 100
296 20
297 20
298 10
299 200
300 100
301 20
302 10
303 400
304 200
305 100
306 400
307 20
308 20
309 400
310 20
311 20
312 400
313 200
314 10
315 400
316 100
317 20
318 20
319 10
320 400
321 20
322 20
323 20
324 20
325 200
326 100
327 200
328 20
329 20
330 20
331 20
332 10
333 400
334 100
335 20
336 20
337 20
338 20
339 10
340 200
341 100
342 20
343 20
344 20
345 400
346 200
347 100
348 400
349 200
350 20
351 20
352 10
353 400
354 400
355 20
356 20
357 20
358 400
359 200
360 20
361 20
362 400
363 20
364 20
365 20
366 20
367 10
368 400
369 400
370 20
371 20
372 10
373 400
374 200
375 20
376 20
377 400
378 400
379 20
380 400
381 100
382 400
383 200
384 20
385 20
386 20
387 20
388 10
389 400
390 200
391 100
392 20
393 20
394 20
395 20
396 10
397 400
398 100
399 200
400 100
401 20
402 400
403 400
404 400
405 400
406 20
407 20
408 400
409 400
410 20
411 20
412 20
413 10
414 400
415 100
416 20
417 20
418 20
419 20
420 400
421 200
422 100
423 10
DEPOT_SECTION
1
-1
EOF