SDVRP instances/custom_instances/p03_25_splitx10_0.sol
422 -4 3 1 2 6 5 206 207 382 381 387 384 383 385 386 -8 9 10 11 7 231 230 233 232 82 84 -12 13 14 67 70 69 68 260 261 396 397 -33 32 31 30 29 176 175 173 174 95 99 -43 44 40 42 41 234 236 235 237 74 75 72 73 71 279 -83 80 76 78 81 79 77 133 132 307 305 -85 57 55 54 56 53 411 407 409 408 412 410 172 171 -97 98 96 313 324 325 215 213 214 362 363 366 364 361 365 189 190 239 238 241 240 265 264 253 252 -119 114 116 115 118 117 293 294 296 297 295 376 209 212 211 210 -120 121 344 346 345 354 356 353 355 352 -123 125 126 124 122 169 170 149 152 151 150 -128 129 127 107 106 105 108 104 218 217 -130 131 372 401 402 -136 137 139 134 135 138 17 18 15 16 304 302 -158 161 162 321 319 323 322 320 25 26 23 24 27 28 315 316 -159 160 109 111 113 112 110 88 89 90 87 86 35 38 390 393 388 -164 360 359 358 357 379 380 140 141 143 145 144 142 306 -166 163 165 58 59 60 222 223 281 280 278 -167 168 198 195 196 199 194 197 193 178 180 184 182 181 183 179 300 301 299 -177 277 273 276 275 271 272 274 243 242 216 -188 186 187 48 47 51 50 52 49 341 340 343 342 339 404 406 403 -192 191 347 350 351 348 349 269 270 267 268 266 335 332 337 336 334 338 333 -208 257 255 259 254 258 256 92 93 91 94 405 -219 220 221 20 19 22 21 201 204 205 200 203 202 373 375 374 -224 308 310 309 399 398 400 185 318 317 314 -247 246 248 244 245 63 62 65 61 66 64 37 34 39 36 389 394 391 395 392 -251 250 249 421 422 420 419 413 416 417 418 414 415 -283 286 285 282 284 146 148 147 102 101 103 100 303 -292 291 289 290 228 225 226 229 227 263 262 370 368 369 371 -298 312 311 288 287 367 -328 329 326 331 327 330 155 153 154 156 157 45 46 378 377 0 





OBJ=
3019.073
BEST_KNOWN=
0.000